NAME : graph1_n10.hcp
COMMENT : Example HCP graph with n=10
TYPE : HCP
DIMENSION : 10
EDGE_DATA_FORMAT : EDGE_LIST
EDGE_DATA_SECTION
1 2
1 5
2 3
2 6
3 4
3 7
4 5
4 8
5 9
6 7
6 10
7 8
8 9
9 10
10 1
-1
EOF
